
Gurobi 9.0.1 (linux64) logging started Thu Apr 30 05:57:51 2020

Gurobi Optimizer version 9.0.1 build v9.0.1rc0 (linux64)
Optimize a model with 980 rows, 990 columns and 7152 nonzeros
Model fingerprint: 0xe5067538
Variable types: 0 continuous, 990 integer (980 binary)
Coefficient statistics:
  Matrix range     [1e+00, 5e+00]
  Objective range  [1e+01, 1e+02]
  Bounds range     [1e+00, 1e+00]
  RHS range        [1e+00, 1e+00]

User MIP start produced solution with objective 568 (0.00s)
Loaded user MIP start with objective 568

Presolve removed 442 rows and 468 columns
Presolve time: 0.06s
Presolved: 538 rows, 522 columns, 4086 nonzeros
Variable types: 0 continuous, 522 integer (522 binary)

Root relaxation: objective 4.154657e+02, 353 iterations, 0.02 seconds

    Nodes    |    Current Node    |     Objective Bounds      |     Work
 Expl Unexpl |  Obj  Depth IntInf | Incumbent    BestBd   Gap | It/Node Time

     0     0  415.46570    0  182  568.00000  415.46570  26.9%     -    0s
     0     0  422.65762    0  169  568.00000  422.65762  25.6%     -    0s
     0     0  422.80461    0  170  568.00000  422.80461  25.6%     -    0s
     0     0  428.07807    0  183  568.00000  428.07807  24.6%     -    0s
     0     0  428.28660    0  183  568.00000  428.28660  24.6%     -    0s
     0     0  428.46999    0  185  568.00000  428.46999  24.6%     -    0s
     0     0  428.49034    0  185  568.00000  428.49034  24.6%     -    0s
     0     0  433.53137    0  203  568.00000  433.53137  23.7%     -    0s
     0     0  433.82885    0  204  568.00000  433.82885  23.6%     -    0s
     0     0  433.83121    0  203  568.00000  433.83121  23.6%     -    0s
     0     0  435.51473    0  186  568.00000  435.51473  23.3%     -    0s
     0     0  436.86555    0  183  568.00000  436.86555  23.1%     -    0s
     0     0  436.88724    0  187  568.00000  436.88724  23.1%     -    0s
     0     0  437.87097    0  201  568.00000  437.87097  22.9%     -    0s
     0     0  437.89112    0  198  568.00000  437.89112  22.9%     -    0s
     0     0  437.89615    0  199  568.00000  437.89615  22.9%     -    0s
     0     0  438.03839    0  201  568.00000  438.03839  22.9%     -    0s
     0     0  438.10589    0  200  568.00000  438.10589  22.9%     -    0s
     0     0  438.11618    0  203  568.00000  438.11618  22.9%     -    0s
     0     0  438.19911    0  200  568.00000  438.19911  22.9%     -    0s
     0     0  438.20273    0  201  568.00000  438.20273  22.9%     -    0s
     0     0  438.53874    0  202  568.00000  438.53874  22.8%     -    0s
     0     0  438.54620    0  197  568.00000  438.54620  22.8%     -    0s
     0     0  439.17340    0  200  568.00000  439.17340  22.7%     -    0s
     0     0  439.28450    0  197  568.00000  439.28450  22.7%     -    0s
     0     0  439.29253    0  199  568.00000  439.29253  22.7%     -    0s
     0     0  439.80653    0  199  568.00000  439.80653  22.6%     -    0s
     0     0  439.89968    0  199  568.00000  439.89968  22.6%     -    0s
     0     0  439.91893    0  204  568.00000  439.91893  22.5%     -    0s
     0     0  439.93270    0  203  568.00000  439.93270  22.5%     -    0s
     0     0  440.03204    0  201  568.00000  440.03204  22.5%     -    0s
     0     0  440.03937    0  202  568.00000  440.03937  22.5%     -    0s
     0     0  440.04358    0  199  568.00000  440.04358  22.5%     -    1s
     0     0  440.04358    0  199  568.00000  440.04358  22.5%     -    1s
     0     0  440.13928    0  182  568.00000  440.13928  22.5%     -    1s
     0     0  440.13928    0  184  568.00000  440.13928  22.5%     -    1s
     0     0  440.13928    0  188  568.00000  440.13928  22.5%     -    1s
     0     0  440.13928    0  199  568.00000  440.13928  22.5%     -    1s
     0     0  440.13928    0  202  568.00000  440.13928  22.5%     -    1s
     0     0  440.13928    0  199  568.00000  440.13928  22.5%     -    1s
     0     0  440.13928    0  202  568.00000  440.13928  22.5%     -    1s
     0     0  440.93472    0  194  568.00000  440.93472  22.4%     -    1s
     0     0  441.47969    0  198  568.00000  441.47969  22.3%     -    1s
     0     0  441.64481    0  197  568.00000  441.64481  22.2%     -    1s
     0     0  441.65397    0  202  568.00000  441.65397  22.2%     -    1s
     0     0  442.19167    0  204  568.00000  442.19167  22.1%     -    1s
     0     0  442.28594    0  206  568.00000  442.28594  22.1%     -    1s
     0     0  442.29941    0  205  568.00000  442.29941  22.1%     -    1s
     0     0  442.33156    0  207  568.00000  442.33156  22.1%     -    1s
     0     0  442.33156    0  207  568.00000  442.33156  22.1%     -    1s
     0     2  442.48661    0  207  568.00000  442.48661  22.1%     -    1s
*   70    50              24     552.0000000  455.91107  17.4%  76.7    2s
H   81    36                     523.0000000  465.38364  11.0%  74.6    2s
*  122    35              15     508.0000000  474.10606  6.67%  65.3    2s

Cutting planes:
  Cover: 1
  MIR: 15
  Zero half: 30
  Mod-K: 1
  RLT: 53

Explored 256 nodes (15029 simplex iterations) in 2.90 seconds
Thread count was 1 (of 40 available processors)

Solution count 4: 508 523 552 568 

Optimal solution found (tolerance 1.00e-04)
Best objective 5.080000000000e+02, best bound 5.080000000000e+02, gap 0.0000%

User-callback calls 1514, time in user-callback 0.00 sec
